SECTION Graph
Nodes 777
Edges 1239
E 1 2 5
E 2 3 5
E 3 4 5
E 4 5 5
E 5 6 5
E 6 7 5
E 7 8 5
E 8 9 5
E 9 10 5
E 10 11 5
E 11 12 5
E 12 13 5
E 13 14 5
E 14 15 5
E 15 16 5
E 16 17 5
E 17 18 5
E 18 19 5
E 19 20 5
E 20 21 5
E 21 22 5
E 22 23 5
E 23 24 5
E 24 25 5
E 25 26 5
E 26 27 5
E 27 28 5
E 28 29 5
E 29 30 5
E 30 31 5
E 31 32 5
E 32 33 5
E 33 34 5
E 34 35 5
E 35 36 5
E 36 37 5
E 37 38 5
E 38 39 5
E 39 40 5
E 40 41 5
E 41 42 5
E 42 43 5
E 43 44 5
E 44 45 5
E 45 46 5
E 46 47 5
E 47 48 5
E 48 49 5
E 1 50 13
E 2 51 13
E 3 52 13
E 4 53 13
E 6 54 13
E 16 55 13
E 17 56 13
E 18 57 13
E 21 60 13
E 25 61 13
E 28 64 13
E 29 65 13
E 30 66 13
E 32 67 13
E 33 68 13
E 36 71 13
E 37 72 13
E 38 73 13
E 39 74 13
E 40 75 13
E 41 76 13
E 42 77 13
E 43 78 13
E 44 79 13
E 45 80 13
E 46 81 13
E 47 82 13
E 48 83 13
E 49 84 13
E 50 51 5
E 51 52 5
E 52 53 5
E 55 56 5
E 56 57 5
E 57 58 5
E 58 59 5
E 59 60 5
E 61 62 5
E 62 63 5
E 63 64 5
E 64 65 5
E 65 66 5
E 67 68 5
E 68 69 5
E 69 70 5
E 70 71 5
E 71 72 5
E 72 73 5
E 73 74 5
E 74 75 5
E 75 76 5
E 76 77 5
E 77 78 5
E 78 79 5
E 79 80 5
E 80 81 5
E 81 82 5
E 82 83 5
E 83 84 5
E 50 85 13
E 51 86 13
E 52 87 13
E 53 88 13
E 54 90 13
E 55 91 13
E 56 92 13
E 60 93 13
E 61 97 13
E 62 98 13
E 63 99 13
E 64 100 13
E 65 101 13
E 66 102 13
E 67 104 13
E 68 105 13
E 70 106 13
E 71 107 13
E 72 108 13
E 73 109 13
E 74 110 13
E 75 111 13
E 76 112 13
E 77 113 13
E 78 114 13
E 79 115 13
E 82 118 13
E 83 119 13
E 84 120 13
E 85 86 5
E 86 87 5
E 87 88 5
E 88 89 5
E 89 90 5
E 91 92 5
E 93 94 5
E 94 95 5
E 95 96 5
E 96 97 5
E 97 98 5
E 98 99 5
E 99 100 5
E 100 101 5
E 101 102 5
E 102 103 5
E 103 104 5
E 104 105 5
E 106 107 5
E 107 108 5
E 108 109 5
E 109 110 5
E 110 111 5
E 111 112 5
E 112 113 5
E 113 114 5
E 114 115 5
E 115 116 5
E 116 117 5
E 117 118 5
E 118 119 5
E 119 120 5
E 85 121 13
E 86 122 13
E 90 123 13
E 91 124 13
E 92 125 13
E 93 129 13
E 94 130 13
E 95 131 13
E 96 132 13
E 97 133 13
E 99 134 13
E 100 135 13
E 101 136 13
E 105 137 13
E 106 139 13
E 107 140 13
E 109 141 13
E 110 142 13
E 111 143 13
E 112 144 13
E 113 145 13
E 115 146 13
E 117 147 13
E 118 148 13
E 119 149 13
E 120 150 13
E 121 122 5
E 124 125 5
E 125 126 5
E 126 127 5
E 127 128 5
E 128 129 5
E 129 130 5
E 130 131 5
E 131 132 5
E 132 133 5
E 134 135 5
E 135 136 5
E 137 138 5
E 138 139 5
E 139 140 5
E 141 142 5
E 142 143 5
E 143 144 5
E 144 145 5
E 147 148 5
E 148 149 5
E 149 150 5
E 121 151 13
E 122 152 13
E 123 156 13
E 124 157 13
E 125 158 13
E 126 159 13
E 127 160 13
E 128 161 13
E 129 162 13
E 130 163 13
E 131 164 13
E 132 165 13
E 133 166 13
E 134 168 13
E 135 169 13
E 136 170 13
E 137 174 13
E 138 175 13
E 139 176 13
E 140 177 13
E 141 179 13
E 142 180 13
E 143 181 13
E 144 182 13
E 145 183 13
E 146 185 13
E 147 187 13
E 148 188 13
E 149 189 13
E 150 190 13
E 151 152 5
E 152 153 5
E 153 154 5
E 154 155 5
E 155 156 5
E 157 158 5
E 158 159 5
E 159 160 5
E 160 161 5
E 161 162 5
E 162 163 5
E 163 164 5
E 164 165 5
E 165 166 5
E 166 167 5
E 167 168 5
E 168 169 5
E 169 170 5
E 170 171 5
E 171 172 5
E 172 173 5
E 173 174 5
E 174 175 5
E 175 176 5
E 176 177 5
E 177 178 5
E 178 179 5
E 179 180 5
E 180 181 5
E 181 182 5
E 182 183 5
E 183 184 5
E 184 185 5
E 185 186 5
E 186 187 5
E 187 188 5
E 188 189 5
E 189 190 5
E 151 191 13
E 152 192 13
E 153 193 13
E 154 194 13
E 155 195 13
E 156 196 13
E 157 206 13
E 158 207 13
E 159 208 13
E 169 209 13
E 170 210 13
E 171 211 13
E 172 212 13
E 173 213 13
E 174 214 13
E 175 215 13
E 177 216 13
E 180 219 13
E 181 220 13
E 182 221 13
E 186 222 13
E 187 223 13
E 189 224 13
E 190 225 13
E 191 192 5
E 192 193 5
E 193 194 5
E 194 195 5
E 195 196 5
E 196 197 5
E 197 198 5
E 198 199 5
E 199 200 5
E 200 201 5
E 201 202 5
E 202 203 5
E 203 204 5
E 204 205 5
E 205 206 5
E 206 207 5
E 207 208 5
E 209 210 5
E 210 211 5
E 211 212 5
E 212 213 5
E 213 214 5
E 214 215 5
E 216 217 5
E 217 218 5
E 218 219 5
E 219 220 5
E 220 221 5
E 222 223 5
E 224 225 5
E 191 226 13
E 192 227 13
E 193 228 13
E 194 229 13
E 196 230 13
E 197 231 13
E 198 232 13
E 199 233 13
E 200 234 13
E 201 235 13
E 202 236 13
E 203 237 13
E 204 238 13
E 205 239 13
E 206 240 13
E 207 241 13
E 208 242 13
E 209 243 13
E 210 244 13
E 211 245 13
E 214 248 13
E 215 249 13
E 216 251 13
E 219 254 13
E 220 255 13
E 221 256 13
E 222 260 13
E 223 261 13
E 224 263 13
E 225 264 13
E 226 227 5
E 227 228 5
E 228 229 5
E 230 231 5
E 231 232 5
E 232 233 5
E 233 234 5
E 234 235 5
E 235 236 5
E 236 237 5
E 237 238 5
E 238 239 5
E 239 240 5
E 240 241 5
E 241 242 5
E 243 244 5
E 244 245 5
E 245 246 5
E 246 247 5
E 247 248 5
E 248 249 5
E 249 250 5
E 250 251 5
E 251 252 5
E 252 253 5
E 253 254 5
E 254 255 5
E 255 256 5
E 256 257 5
E 257 258 5
E 258 259 5
E 259 260 5
E 260 261 5
E 261 262 5
E 262 263 5
E 263 264 5
E 226 265 13
E 227 266 13
E 228 267 13
E 229 268 13
E 230 270 13
E 231 271 13
E 232 272 13
E 233 273 13
E 241 274 13
E 242 275 13
E 243 276 13
E 244 277 13
E 245 278 13
E 246 279 13
E 247 280 13
E 248 281 13
E 249 282 13
E 251 283 13
E 252 284 13
E 254 285 13
E 256 286 13
E 257 287 13
E 258 288 13
E 259 289 13
E 260 290 13
E 261 291 13
E 262 292 13
E 263 293 13
E 264 294 13
E 265 266 5
E 266 267 5
E 267 268 5
E 268 269 5
E 269 270 5
E 270 271 5
E 271 272 5
E 272 273 5
E 274 275 5
E 276 277 5
E 277 278 5
E 278 279 5
E 279 280 5
E 280 281 5
E 281 282 5
E 283 284 5
E 286 287 5
E 287 288 5
E 288 289 5
E 289 290 5
E 290 291 5
E 291 292 5
E 292 293 5
E 293 294 5
E 265 295 13
E 273 296 13
E 274 297 13
E 275 298 13
E 276 299 13
E 277 300 13
E 281 301 13
E 282 302 13
E 283 304 13
E 284 305 13
E 285 307 13
E 286 309 13
E 287 310 13
E 288 311 13
E 290 312 13
E 291 313 13
E 292 314 13
E 293 315 13
E 294 316 13
E 297 298 5
E 299 300 5
E 301 302 5
E 302 303 5
E 303 304 5
E 304 305 5
E 305 306 5
E 306 307 5
E 307 308 5
E 308 309 5
E 309 310 5
E 310 311 5
E 312 313 5
E 313 314 5
E 314 315 5
E 315 316 5
E 295 317 13
E 296 318 13
E 297 319 13
E 298 320 13
E 299 330 13
E 300 331 13
E 301 335 13
E 302 336 13
E 304 337 13
E 306 338 13
E 308 339 13
E 309 340 13
E 310 341 13
E 311 342 13
E 312 344 13
E 313 345 13
E 314 346 13
E 315 347 13
E 316 348 13
E 319 320 5
E 320 321 5
E 321 322 5
E 322 323 5
E 323 324 5
E 324 325 5
E 325 326 5
E 326 327 5
E 327 328 5
E 328 329 5
E 329 330 5
E 330 331 5
E 331 332 5
E 332 333 5
E 333 334 5
E 334 335 5
E 335 336 5
E 339 340 5
E 340 341 5
E 341 342 5
E 342 343 5
E 343 344 5
E 344 345 5
E 345 346 5
E 346 347 5
E 347 348 5
E 317 349 13
E 318 350 13
E 319 351 13
E 323 352 13
E 324 353 13
E 325 354 13
E 326 355 13
E 327 356 13
E 328 357 13
E 329 358 13
E 330 359 13
E 331 360 13
E 332 361 13
E 333 362 13
E 334 363 13
E 335 364 13
E 336 365 13
E 337 367 13
E 338 369 13
E 339 371 13
E 340 372 13
E 341 373 13
E 342 374 13
E 345 375 13
E 346 376 13
E 347 377 13
E 348 378 13
E 352 353 5
E 353 354 5
E 354 355 5
E 355 356 5
E 356 357 5
E 357 358 5
E 358 359 5
E 359 360 5
E 360 361 5
E 361 362 5
E 362 363 5
E 363 364 5
E 364 365 5
E 365 366 5
E 366 367 5
E 367 368 5
E 368 369 5
E 369 370 5
E 370 371 5
E 371 372 5
E 372 373 5
E 373 374 5
E 375 376 5
E 376 377 5
E 377 378 5
E 349 379 13
E 350 380 13
E 351 388 13
E 352 392 13
E 353 393 13
E 354 394 13
E 355 395 13
E 356 396 13
E 360 397 13
E 364 398 13
E 366 399 13
E 367 400 13
E 371 401 13
E 374 402 13
E 375 403 13
E 376 404 13
E 377 405 13
E 378 406 13
E 380 381 5
E 381 382 5
E 382 383 5
E 383 384 5
E 384 385 5
E 385 386 5
E 386 387 5
E 387 388 5
E 388 389 5
E 389 390 5
E 390 391 5
E 391 392 5
E 392 393 5
E 393 394 5
E 394 395 5
E 395 396 5
E 399 400 5
E 403 404 5
E 404 405 5
E 405 406 5
E 379 407 13
E 380 415 13
E 381 416 13
E 382 417 13
E 383 418 13
E 384 419 13
E 385 420 13
E 386 421 13
E 387 422 13
E 388 423 13
E 389 424 13
E 390 425 13
E 391 426 13
E 392 427 13
E 393 428 13
E 396 431 13
E 397 435 13
E 398 439 13
E 399 441 13
E 400 442 13
E 401 446 13
E 402 447 13
E 403 450 13
E 404 451 13
E 405 452 13
E 406 453 13
E 407 408 5
E 408 409 5
E 409 410 5
E 410 411 5
E 411 412 5
E 412 413 5
E 413 414 5
E 414 415 5
E 415 416 5
E 416 417 5
E 417 418 5
E 418 419 5
E 419 420 5
E 420 421 5
E 421 422 5
E 422 423 5
E 423 424 5
E 424 425 5
E 425 426 5
E 426 427 5
E 427 428 5
E 428 429 5
E 429 430 5
E 430 431 5
E 431 432 5
E 432 433 5
E 433 434 5
E 434 435 5
E 435 436 5
E 436 437 5
E 437 438 5
E 438 439 5
E 439 440 5
E 440 441 5
E 441 442 5
E 442 443 5
E 443 444 5
E 444 445 5
E 445 446 5
E 447 448 5
E 448 449 5
E 449 450 5
E 450 451 5
E 451 452 5
E 452 453 5
E 407 454 13
E 408 455 13
E 409 456 13
E 410 457 13
E 411 458 13
E 412 459 13
E 413 460 13
E 414 461 13
E 415 462 13
E 416 463 13
E 419 464 13
E 420 465 13
E 430 466 13
E 431 467 13
E 432 468 13
E 433 469 13
E 434 470 13
E 435 471 13
E 436 472 13
E 437 473 13
E 438 474 13
E 439 475 13
E 442 478 13
E 443 479 13
E 444 480 13
E 445 481 13
E 446 482 13
E 447 485 13
E 448 486 13
E 449 487 13
E 450 488 13
E 451 489 13
E 452 490 13
E 453 491 13
E 454 455 5
E 455 456 5
E 456 457 5
E 457 458 5
E 458 459 5
E 459 460 5
E 460 461 5
E 461 462 5
E 462 463 5
E 464 465 5
E 466 467 5
E 467 468 5
E 468 469 5
E 469 470 5
E 470 471 5
E 471 472 5
E 472 473 5
E 473 474 5
E 474 475 5
E 475 476 5
E 476 477 5
E 477 478 5
E 478 479 5
E 479 480 5
E 480 481 5
E 481 482 5
E 482 483 5
E 483 484 5
E 484 485 5
E 485 486 5
E 486 487 5
E 487 488 5
E 488 489 5
E 489 490 5
E 490 491 5
E 454 492 13
E 462 493 13
E 463 494 13
E 464 495 13
E 465 496 13
E 466 497 13
E 467 498 13
E 468 499 13
E 469 500 13
E 470 501 13
E 471 502 13
E 472 503 13
E 473 504 13
E 477 505 13
E 478 506 13
E 479 507 13
E 482 510 13
E 483 511 13
E 484 512 13
E 485 513 13
E 487 514 13
E 491 515 13
E 493 494 5
E 495 496 5
E 497 498 5
E 498 499 5
E 499 500 5
E 500 501 5
E 501 502 5
E 502 503 5
E 503 504 5
E 505 506 5
E 506 507 5
E 507 508 5
E 508 509 5
E 509 510 5
E 510 511 5
E 511 512 5
E 512 513 5
E 492 516 13
E 493 517 13
E 494 518 13
E 495 521 13
E 496 522 13
E 497 523 13
E 498 524 13
E 499 525 13
E 500 526 13
E 504 527 13
E 505 531 13
E 506 532 13
E 507 533 13
E 511 534 13
E 512 535 13
E 513 536 13
E 514 538 13
E 515 542 13
E 517 518 5
E 518 519 5
E 519 520 5
E 520 521 5
E 521 522 5
E 523 524 5
E 524 525 5
E 525 526 5
E 527 528 5
E 528 529 5
E 529 530 5
E 530 531 5
E 531 532 5
E 532 533 5
E 534 535 5
E 535 536 5
E 536 537 5
E 537 538 5
E 538 539 5
E 539 540 5
E 540 541 5
E 541 542 5
E 516 543 13
E 517 544 13
E 518 545 13
E 519 546 13
E 520 547 13
E 521 548 13
E 522 549 13
E 523 550 13
E 524 551 13
E 525 552 13
E 526 553 13
E 527 557 13
E 528 558 13
E 529 559 13
E 530 560 13
E 531 561 13
E 533 562 13
E 534 566 13
E 536 567 13
E 537 568 13
E 538 569 13
E 539 570 13
E 540 571 13
E 541 572 13
E 542 573 13
E 544 545 5
E 545 546 5
E 546 547 5
E 547 548 5
E 548 549 5
E 550 551 5
E 551 552 5
E 552 553 5
E 553 554 5
E 554 555 5
E 555 556 5
E 556 557 5
E 557 558 5
E 558 559 5
E 559 560 5
E 560 561 5
E 562 563 5
E 563 564 5
E 564 565 5
E 565 566 5
E 567 568 5
E 568 569 5
E 569 570 5
E 570 571 5
E 571 572 5
E 572 573 5
E 543 574 13
E 544 575 13
E 545 576 13
E 549 577 13
E 550 587 13
E 551 588 13
E 552 589 13
E 553 590 13
E 554 591 13
E 555 592 13
E 556 593 13
E 557 594 13
E 558 595 13
E 559 596 13
E 560 597 13
E 561 598 13
E 562 600 13
E 563 601 13
E 564 602 13
E 565 603 13
E 566 604 13
E 567 606 13
E 568 607 13
E 569 608 13
E 572 611 13
E 573 612 13
E 575 576 5
E 577 578 5
E 578 579 5
E 579 580 5
E 580 581 5
E 581 582 5
E 582 583 5
E 583 584 5
E 584 585 5
E 585 586 5
E 586 587 5
E 587 588 5
E 588 589 5
E 589 590 5
E 590 591 5
E 591 592 5
E 592 593 5
E 593 594 5
E 594 595 5
E 595 596 5
E 596 597 5
E 597 598 5
E 598 599 5
E 599 600 5
E 600 601 5
E 601 602 5
E 602 603 5
E 603 604 5
E 604 605 5
E 605 606 5
E 606 607 5
E 607 608 5
E 608 609 5
E 609 610 5
E 610 611 5
E 611 612 5
E 574 613 13
E 575 621 13
E 576 622 13
E 577 626 13
E 578 627 13
E 579 628 13
E 580 629 13
E 581 630 13
E 582 631 13
E 583 632 13
E 584 633 13
E 585 634 13
E 586 635 13
E 587 636 13
E 588 637 13
E 591 640 13
E 593 641 13
E 595 642 13
E 596 643 13
E 597 644 13
E 598 645 13
E 599 646 13
E 600 647 13
E 601 648 13
E 602 649 13
E 603 650 13
E 604 651 13
E 605 652 13
E 606 653 13
E 607 654 13
E 608 655 13
E 610 656 13
E 611 657 13
E 612 658 13
E 613 614 5
E 614 615 5
E 615 616 5
E 616 617 5
E 617 618 5
E 618 619 5
E 619 620 5
E 620 621 5
E 621 622 5
E 622 623 5
E 623 624 5
E 624 625 5
E 625 626 5
E 626 627 5
E 627 628 5
E 628 629 5
E 629 630 5
E 630 631 5
E 631 632 5
E 632 633 5
E 633 634 5
E 634 635 5
E 635 636 5
E 636 637 5
E 637 638 5
E 638 639 5
E 639 640 5
E 642 643 5
E 643 644 5
E 644 645 5
E 645 646 5
E 646 647 5
E 647 648 5
E 648 649 5
E 649 650 5
E 650 651 5
E 651 652 5
E 652 653 5
E 653 654 5
E 654 655 5
E 656 657 5
E 657 658 5
E 613 659 13
E 614 660 13
E 615 661 13
E 616 662 13
E 617 663 13
E 618 664 13
E 619 665 13
E 620 666 13
E 621 667 13
E 622 668 13
E 623 669 13
E 624 670 13
E 625 671 13
E 626 672 13
E 627 673 13
E 630 674 13
E 631 675 13
E 634 676 13
E 635 677 13
E 636 678 13
E 637 679 13
E 640 682 13
E 641 684 13
E 642 686 13
E 643 687 13
E 644 688 13
E 645 689 13
E 646 690 13
E 647 691 13
E 648 692 13
E 649 693 13
E 650 694 13
E 651 695 13
E 655 696 13
E 656 698 13
E 658 699 13
E 659 660 5
E 660 661 5
E 661 662 5
E 662 663 5
E 663 664 5
E 664 665 5
E 665 666 5
E 666 667 5
E 667 668 5
E 668 669 5
E 669 670 5
E 670 671 5
E 671 672 5
E 672 673 5
E 674 675 5
E 676 677 5
E 677 678 5
E 678 679 5
E 679 680 5
E 680 681 5
E 681 682 5
E 682 683 5
E 683 684 5
E 684 685 5
E 685 686 5
E 686 687 5
E 687 688 5
E 688 689 5
E 689 690 5
E 690 691 5
E 691 692 5
E 692 693 5
E 693 694 5
E 694 695 5
E 696 697 5
E 697 698 5
E 659 700 13
E 660 701 13
E 661 702 13
E 662 703 13
E 663 704 13
E 664 705 13
E 665 706 13
E 666 707 13
E 667 708 13
E 671 709 13
E 673 710 13
E 674 711 13
E 675 712 13
E 676 713 13
E 677 714 13
E 678 715 13
E 679 716 13
E 680 717 13
E 681 718 13
E 682 719 13
E 683 720 13
E 684 721 13
E 685 722 13
E 686 723 13
E 687 724 13
E 688 725 13
E 689 726 13
E 690 727 13
E 691 728 13
E 695 729 13
E 696 733 13
E 697 734 13
E 698 735 13
E 699 737 13
E 700 701 5
E 701 702 5
E 702 703 5
E 703 704 5
E 704 705 5
E 705 706 5
E 706 707 5
E 707 708 5
E 711 712 5
E 713 714 5
E 714 715 5
E 715 716 5
E 716 717 5
E 717 718 5
E 718 719 5
E 719 720 5
E 720 721 5
E 721 722 5
E 722 723 5
E 723 724 5
E 724 725 5
E 725 726 5
E 726 727 5
E 727 728 5
E 729 730 5
E 730 731 5
E 731 732 5
E 732 733 5
E 733 734 5
E 734 735 5
E 735 736 5
E 736 737 5
E 700 738 13
E 704 739 13
E 708 740 13
E 709 744 13
E 710 746 13
E 711 749 13
E 712 750 13
E 713 753 13
E 714 754 13
E 715 755 13
E 716 756 13
E 717 757 13
E 718 758 13
E 719 759 13
E 720 760 13
E 721 761 13
E 722 762 13
E 723 763 13
E 724 764 13
E 725 765 13
E 726 766 13
E 727 767 13
E 728 768 13
E 729 772 13
E 730 773 13
E 731 774 13
E 732 775 13
E 733 776 13
E 734 777 13
E 740 741 5
E 741 742 5
E 742 743 5
E 743 744 5
E 744 745 5
E 745 746 5
E 746 747 5
E 747 748 5
E 748 749 5
E 749 750 5
E 750 751 5
E 751 752 5
E 752 753 5
E 753 754 5
E 754 755 5
E 755 756 5
E 756 757 5
E 757 758 5
E 758 759 5
E 759 760 5
E 760 761 5
E 761 762 5
E 762 763 5
E 763 764 5
E 764 765 5
E 765 766 5
E 766 767 5
E 767 768 5
E 768 769 5
E 769 770 5
E 770 771 5
E 771 772 5
E 772 773 5
E 773 774 5
E 774 775 5
E 775 776 5
E 776 777 5
END

SECTION Terminals
Terminals 10
T 90
T 189
T 240
T 242
T 272
T 461
T 496
T 520
T 748
T 752
END

EOF
